memory 32 GB

molecule mol {
1 1
	    C     1.5664004643  -0.4568570874  -2.1364966024
	    C     0.5532147560   0.5763237859  -0.0481608803
	    C     0.7026123884   2.0241860516   0.2725072817
	    C     2.2275181453   2.1790682995   0.4538341003
	    C     2.7717458992   1.2944711342  -0.6729776601
	    C     1.8104665446   0.0833578751  -0.7092745540
	    H     2.2083642595  -0.7361778109  -0.0770479952
	    H     3.8180738824   0.9892351802  -0.5307550722
	    H     2.7078340252   1.8337641993  -1.6340016054
	    H     2.5242208432   1.7892762622   1.4418837333
	    H     2.5470182319   3.2284797822   0.3898299153
	    H     0.0745941425   2.3837041250   1.0981409597
	    H     0.4055629036   2.5706915301  -0.6504917965
	    C    -0.5793948178  -0.2183375491   0.2473418683
	    C    -0.5182226301  -1.6456849943   0.1412771940
	    C    -1.6440597591  -2.4118594680   0.4319548861
	    C    -2.8492644696  -1.7794061807   0.8054993615
	    C    -2.9285045922  -0.3753325623   0.9121625280
	    C    -1.8020448757   0.4040259034   0.6588220330
	    H    -1.8629454972   1.4920986500   0.7349170779
	    H    -3.8691471456   0.0981439531   1.2038778916
	    H    -3.7329421632  -2.3875837345   1.0234578238
	    H    -1.5955576323  -3.5019939581   0.3736733784
	    H     0.4219423786  -2.1354228587  -0.1221949151
	    H     0.9389584655  -1.3588049971  -2.1496507219
	    H     2.5398277521  -0.6988428534  -2.5898440410
	    H     1.0843462196   0.3155920126  -2.7564547043
}	


set scf_type df
set basis cc-pVDZ
set reference rhf


mol.update_geometry()
mol.symmetrize(1e-3)

e, wfn = frequencies('mp2', return_wfn=True)
oeprop(wfn, "MULLIKEN_CHARGES")
mol.print_out()
print_variables()
