memory 32 GB

molecule mol {
1 1
    C            2.750209918032     0.445453241200     1.072402199921
    C            1.786817117049     1.579469412777     0.457695183126
    C            1.031253046869     0.779372960714    -0.489067669795
    C            1.693233433246     0.349077878935    -1.706651857594
    C            2.652303300659    -0.796102138887    -1.104156767374
    C            3.564173477849    -0.203492391893    -0.038690650631
    C           -0.290777479351     0.249297494869    -0.130850078506
    C           -0.502102760371    -0.957273122701     0.565859183165
    C           -1.814929525231    -1.360107998440     0.855470133665
    C           -2.927009189040    -0.588876801230     0.469653664823
    C           -2.689900853488     0.614722413450    -0.225530464787
    C           -1.391621866475     1.043621814039    -0.529895640811
    H           -1.238561543011     1.984064220492    -1.068791170063
    H           -3.535241716117     1.237166339957    -0.535963104442
    C           -4.335310741664    -1.039897346803     0.763254661735
    H           -1.969688308547    -2.297202674443     1.398998158440
    H            0.336259701267    -1.581321782430     0.884856410954
    H            1.014903571694    -0.102685116857    -2.441015747161
    H            2.351765315962     1.113833189294    -2.143326667777
    H            2.139264768300    -0.292632658925     1.616115838513
    H            3.368633491094     0.978520955746     1.811761083199
    H            4.189742983674    -1.005190966391     0.390282291249
    H            4.248342317123     0.534784919262    -0.490765003284
    H            2.032204284750    -1.613274483362    -0.702507635635
    H            1.174208995327     2.003423295006     1.263031979517
    H            2.441054561715     2.322881219667    -0.020559749613
    H            3.197365946887    -1.187551076480    -1.977652982601
    H           -4.946238896527    -0.203147317458     1.134546657985
    H           -4.814545593858    -1.422933041329    -0.152454997571
    H           -4.349656141011    -1.841180583340     1.515767681700
}

set scf_type df
set basis cc-pVDZ
set reference rhf

mol.update_geometry()
mol.symmetrize(1e-3)

e, wfn = frequencies('mp2', return_wfn=True)
oeprop(wfn, "MULLIKEN_CHARGES")
mol.print_out()
print_variables()
