memory 62 GB

molecule mol {
0 1
    C            3.925032925852     0.814515100899     0.441512512978
    C            2.465104029492     1.312406302065     0.522395484756
    C            1.677251551997     0.164974335646    -0.104432268218
    C            2.493255818261    -0.633670171723    -0.838152651633
    C            3.934304482702    -0.149284983546    -0.764971647237
    C            0.205012398001     0.051923300011     0.058312977378
    C           -0.427457675220    -1.194624665919     0.281366887584
    C           -1.810692386067    -1.287269762279     0.444207861434
    C           -2.614307116932    -0.129755194347     0.397499660677
    C           -2.006023666804     1.120073061307     0.197814323285
    C           -0.610003614040     1.197148692659     0.038278730784
    C            2.127349129046    -1.793952051039    -1.725842051327
    H           -0.155427102668     2.181369084267    -0.115835369013
    H           -2.593697076134     2.039880076807     0.166366698239
    O           -3.955723647595    -0.334407039179     0.566510125662
    H           -2.298366780512    -2.250094981609     0.622352766084
    H            0.180346124821    -2.101830539078     0.351964066437
    H            4.159349119164     0.244836838380     1.358747610426
    H            4.661174973746     1.631232830530     0.355279950026
    H            4.656946384136    -0.978007779963    -0.649075656410
    H            4.200174891699     0.374429221712    -1.706522238997
    H            1.041327767594    -1.864589437673    -1.892785361362
    H            2.623266810190    -1.685521075287    -2.708377519190
    H            2.476599463377    -2.752059648911    -1.296272206750
    H            2.142188728640     1.536839031650     1.554253360971
    H            2.325645869095     2.240207004459    -0.068753958365
    C           -4.787434680498     0.812080942118     0.509617185911
    H           -5.810557395454     0.452690470424     0.687537763167
    H           -4.519253031380     1.548831603492     1.289425678240
    H           -4.740285676780     1.300804102124    -0.481051929290
}

set scf_type df
set basis cc-pVDZ
set reference rhf

mol.update_geometry()
mol.symmetrize(1e-3)

e, wfn = optimize('CCSD', return_wfn=True)
oeprop(wfn, "MULLIKEN_CHARGES")
mol.print_out()
print_variables()
