memory 62 GB

molecule mol {
1 1
units bohr
         C           -2.609054306218     1.219378788746    -1.387348241562
         C           -0.444326105330     0.216665540138    -0.211078766140
         C           -0.762598410359    -1.499859627017     1.803552587032
         C           -3.185731860071    -2.200507713375     2.618638708095
         C           -5.333621030432    -1.193217548091     1.424413055029
         C           -5.038785960338     0.517670566032    -0.581897834012
         C            2.152855938189     0.997540059426    -0.994271979384
         C            3.717738142680     2.664098978098     0.807648021655
         C            6.105322064521     1.095446769986     1.377190688880
         C            6.633307764521    -0.368718701197    -1.087554530115
         C            4.011507407240    -0.870163197766    -2.191432377123
         C            2.823954377123     1.207717288825    -3.767278772594
         H            3.399011265182    -2.810373356665    -2.558957652358
         H            7.674236944564    -2.137863292316    -0.740861595686
         H            7.783640748871     0.779586607020    -2.397922750851
         H            5.661109813388    -0.274153026427     2.888408450861
         H            7.719127388674     2.247087444815     2.021944455899
         H            2.637818243491     3.118819996215     2.527928074621
         H            4.217092602154     4.470423930735    -0.113548111079
         H           -2.379523672345     2.564686155816    -2.942222456493
         H           -6.703192480953     1.310711142115    -1.518975225104
         O           -7.719449396702    -1.887735362898     2.215741539243
         H           -3.401391184960    -3.542517508356     4.177398199940
         H            0.911872791601    -2.303769907774     2.718038302294
         H            1.386118460046     0.641954073851    -5.139887012999
         H            4.035865976997     2.780073360143    -4.352734823522
         H            2.422937485765     2.894286517440    -4.886830008086
         H           -8.946331406942    -1.045427736998     1.221838193833
}

set scf_type df
set opt_type ts
set basis cc-pVDZ
set reference rhf
set geom_maxiter 1000
set opt_coordinates cartesian
set full_hess_every 0
set dynamic_level 1

mol.update_geometry()
mol.symmetrize(1e-3)

e, wfn = optimize('CCSD', return_wfn=True)
oeprop(wfn, "MULLIKEN_CHARGES")
mol.print_out()
print_variables()
