memory 62 GB

molecule mol {
1 1
units bohr
         C           -1.891925595245     1.261081146369    -1.434037665111
         C            0.274191873322     0.256876430615    -0.257768189689
         C           -0.045580022723    -1.459648736540     1.756863163483
         C           -2.468713472436    -2.160296822898     2.571949284546
         C           -4.616602642797    -1.153006657615     1.377723631480
         C           -4.321767572703     0.557881456508    -0.628587257561
         C            2.869874325824     1.037750949903    -1.040961402933
         C            4.434756530316     2.704309868574     0.760958598106
         C            6.822340452156     1.135657660463     1.330501265331
         C            7.350326152156    -0.328507810721    -1.134243953664
         C            4.728525794875    -0.829952307289    -2.238121800672
         C            3.540972764758     1.247928179302    -3.813968196143
         H            4.116029652817    -2.770162466189    -2.605647075907
         H            8.391255332199    -2.097652401839    -0.787551019235
         H            8.500659136506     0.819797497497    -2.444612174400
         H            6.378128201023    -0.233942135950     2.841719027312
         H            8.436145776309     2.287298335291     1.975255032350
         H            3.354836631126     3.159030886691     2.481238651072
         H            4.934110989789     4.510634821211    -0.160237534628
         H           -1.662505284710     2.604897046292    -2.988911880042
         H           -5.986174093318     1.350922032592    -1.565664648654
         O           -7.002431009067    -1.847524472421     2.169052115694
         H           -2.684372797325    -3.502306617879     4.130708776391
         H            1.628891179236    -2.263559017298     2.671348878745
         H            2.103136847681     0.682164964327    -5.186576436548
         H            4.752884364632     2.820284250620    -4.399424247071
         H            3.139955873400     2.934497407916    -4.933519431635
         C           -8.816193923733    -0.602297000955     0.699712574380
         H          -10.698924283075    -1.150361041039     1.324174462263
         H           -8.589319074289     1.432352221064     0.908846674958
         H           -8.571187152116    -1.120269042217    -1.276818120651
}

set scf_type df
set opt_type ts
set basis cc-pVDZ
set reference rhf
set geom_maxiter 1000
set opt_coordinates cartesian
set full_hess_every 0
set dynamic_level 1

mol.update_geometry()
mol.symmetrize(1e-3)

e, wfn = optimize('CCSD', return_wfn=True)
oeprop(wfn, "MULLIKEN_CHARGES")
mol.print_out()
print_variables()
