memory 62 GB

molecule mol {
1 1
         C            1.077907759776     0.541020428307    -1.878474830315
         C            0.722777759776     0.429799428307    -0.411062830315
         C            1.550148663990     1.311704428307     0.542472169685
         C            2.814403823259     0.481609428307     0.843861169685
         C            3.093801823259    -0.293193571693    -0.460425830315
         C            1.706404823259    -0.558546571693    -1.044572830315
         H            1.382285823259    -1.585261571693    -1.239058830315
         H            3.644637823259    -1.229384571693    -0.276963830315
         H            3.702531823259     0.314463428307    -1.153842830315
         H            2.579336823259    -0.243151571693     1.643563169685
         H            3.668392823259     1.091031428307     1.185050169685
         H            0.979479823259     1.552332428307     1.452805169685
         H            1.815195823259     2.267570428307     0.054996169685
         C           -0.650727176741     0.016578428307     0.003385169685
         C           -0.819943176741    -0.891767571693     1.069482169685
         C           -2.102210176741    -1.262534571693     1.500807169685
         C           -3.238824176741    -0.729499571693     0.868850169685
         C           -3.082804176741     0.175863428307    -0.192843830315
         C           -1.796987176741     0.547191428307    -0.619069830315
         H           -1.675583176741     1.259097428307    -1.441873830315
         H           -3.963570176741     0.595522428307    -0.688723830315
         H           -4.239727176741    -1.020863571693     1.200828169685
         H           -2.216332176741    -1.972695571693     2.325667169685
         H            0.066148823259    -1.317178571693     1.553407169685
         H            0.317108823259     0.241631428307    -2.604827830315
         H            1.719294823259     1.373075428307    -2.188284830315
         H            0.865769193259     1.433514558307    -2.470915760315
}

set scf_type df
set opt_type ts
set basis cc-pVDZ
set reference rhf
set geom_maxiter 1000
set opt_coordinates cartesian
set full_hess_every 0
set dynamic_level 1

mol.update_geometry()
mol.symmetrize(1e-3)

e, wfn = optimize('CCSD', return_wfn=True)
oeprop(wfn, "MULLIKEN_CHARGES")
mol.print_out()
print_variables()
