memory 62 GB

molecule mol {
1 1
    C            1.429769582465    -0.900993816231     0.434317692532
    C            0.317808792808    -0.107421231312     0.096035307232
    C           -0.611194268753    -0.602563677974    -0.849034938781
    C           -0.445753705082    -1.865628122408    -1.413481566791
    C            0.671771933762    -2.657073166101    -1.066061276222
    C            1.611128315219    -2.165676270824    -0.142337489007
    C            0.211372686156     1.273286492436     0.670446411793
    C            0.125732551202     2.463454474375    -0.298069083494
    C           -1.360759078302     2.846603480401    -0.415104482850
    C           -1.859774421462     2.768057447277     1.034205255320
    C           -1.269957637735     1.506473163923     1.676159796441
    C            0.541140857535     1.485770007884     2.014708406043
    O            0.769442687245    -3.865802789238    -1.660941667357
    H            2.185560828769    -0.529079633713     1.135150197048
    H            2.488507971974    -2.763844123211     0.126394705385
    H           -1.167016932641    -2.260892296316    -2.133640119510
    H           -1.485824054190    -0.011486869093    -1.138533922688
    H            0.733336022404     0.645630143119     2.690159738233
    H            0.739599086828     2.494598371024     2.394030404915
    H           -1.905606727851     2.128222790940    -1.052276290677
    H           -1.496435170270     3.846658155529    -0.856615660166
    H           -2.959768420092     2.717317511068     1.117373867210
    H           -1.528254777990     3.653931318165     1.605965194610
    H           -1.720981086995     0.534560316461     1.408107191139
    H            0.593422762201     2.184038378663    -1.253383696681
    H            0.687447330568     3.312953925254     0.129347006581
    H           -1.341884503805     1.557109407138     2.802896387121
    H            1.571346700013    -4.311275455969    -1.353749502347
}

set scf_type df
set opt_type ts
set basis cc-pVDZ
set reference rhf
set geom_maxiter 400


mol.update_geometry()
mol.symmetrize(1e-3)

e, wfn = optimize('CCSD', return_wfn=True)
oeprop(wfn, "MULLIKEN_CHARGES")
mol.print_out()
print_variables()
