memory 62 GB

molecule mol {
1 1
 C     1.263455    -0.830095     0.301389
 C     0.109287    -0.071802     0.026070
 C    -0.866981    -0.615472    -0.835100
 C    -0.695421    -1.885914    -1.404542
 C     0.458870    -2.635169    -1.118854
 C     1.437612    -2.104158    -0.263687
 C    -0.074111     1.299690     0.586965
 C     0.015315     2.507717    -0.364566
 C    -1.356829     3.200190    -0.246615
 C    -1.779295     2.983952     1.221143
 C    -1.190588     1.620997     1.584855
 C     0.256381     1.583570     2.036784
 O     0.627353    -3.887603    -1.673311
 H     2.030351    -0.413010     0.962045
 H     2.339320    -2.681782    -0.037785
 H    -1.464833    -2.295724    -2.066212
 H    -1.772726    -0.036766    -1.047330
 H     0.561801     0.737340     2.658683
 H     0.739137     2.537536     2.274436
 H    -2.074849     2.677217    -0.903124
 H    -1.339762     4.261400    -0.547689
 H    -2.873814     3.001236     1.344677
 H    -1.364046     3.776898     1.868778
 H    -1.846742     0.816672     1.930608
 H     0.234839     2.183127    -1.393952
 H     0.827707     3.188298    -0.051567
 H    -1.181731     2.110837     2.315008
 H     1.450626    -4.253727    -1.381794
}

set scf_type df
set opt_type ts
set basis cc-pVTZ
set reference rhf
set geom_maxiter 400


mol.update_geometry()
mol.symmetrize(1e-3)

e, wfn = optimize('CCSD-T', return_wfn=True)
oeprop(wfn, "MULLIKEN_CHARGES")
mol.print_out()
print_variables()
