molecule mol {
0 1
C 0.00000000 0.00000000 0.00000000
C -1.33160900 -0.52821100 0.39484800
C -1.43071100 -1.45269700 1.36587800
C -2.62792500 -1.93591800 1.73239500
C -3.74244100 -1.49412800 1.13010500
C -3.65384200 -0.56756700 0.16376000
C -2.45408900 -0.08753000 -0.19926200
H -2.39924400 0.68070000 -0.98910300
H -4.56915100 -0.19773500 -0.33032400
H -4.72851800 -1.88886800 1.43070300
H -2.69633900 -2.69630400 2.52975600
H -0.52149000 -1.82349700 1.86898600
C 0.80291000 0.82866100 0.99372200
C 2.05469100 -0.01352700 1.29254400
C 2.33965600 -0.73613400 -0.03532100
C 0.96570300 -0.98706800 -0.64018800
H 0.68568600 -2.02295000 -0.82494200
C 0.34304200 0.10457800 -1.46989700
H -0.39656500 -0.20546400 -2.20363900
H 0.96769800 0.93522300 -1.78708200
H 2.89906800 -1.68689100 0.13106700
H 2.94532000 -0.09317900 -0.71653600
H 1.81957400 -0.76486100 2.08426400
H 2.91658800 0.60476700 1.63908400
H 0.22390900 1.05449200 1.91967800
H 1.08828700 1.79961000 0.52491500
}

set scf_type df
set basis cc-pVTZ
set reference rhf

mol.update_geometry()
mol.symmetrize(1e-3)

e, wfn = optimize('ccsd', return_wfn=True)
oeprop(wfn, "MULLIKEN_CHARGES")
mol.print_out()
print_variables()
