memory 62 GB

molecule mol {
1 1
    C            1.573361342824     1.347527853419     0.461319791787
    C            0.644297681607     0.632848723823    -0.516444262648
    C           -0.661336171703     0.087739750614    -0.031296307370
    C           -0.740397208995    -0.846830633306     1.023579718875
    C           -1.993364246080    -1.266738197617     1.488141541240
    C           -3.169778005276    -0.733804401321     0.930644252041
    C           -3.093938961338     0.213986241445    -0.100416978424
    C           -1.841186713686     0.621100060176    -0.587864561850
    H           -1.790168352070     1.371888293213    -1.383537853936
    H           -4.005232817851     0.639184741684    -0.530378388726
    H           -4.145707731562    -1.057143085943     1.304839361458
    H           -2.050050838909    -2.005346123177     2.292856835277
    H            0.163859145102    -1.264889635817     1.476458197828
    C            0.921982254941     0.675236950833    -1.890252872078
    H            0.212043407796     0.255304892461    -2.609255315708
    H            1.733307817810     1.298869041166    -2.279474310015
    C            1.828133183786    -0.730719690249    -1.165301104494
    C            3.089529567727    -0.340448109698    -0.393809606215
    C            2.648135619585     0.332446011918     0.910777748218
    H            2.210814814267    -0.416387622671     1.594134680545
    H            3.474196278910     0.826424610807     1.445775094045
    H            3.688590019938    -1.252494862738    -0.227449782278
    H            3.700946627942     0.347799235124    -1.005046502579
    H            1.192551968559    -1.473973651066    -0.654289200412
    H            0.982759756573     1.764309242260     1.291042977802
    H            2.068415939778     2.176973835410    -0.072493115427
    H            2.024383486075    -1.119366898595    -2.180084679181
}

set scf_type df
set opt_type ts
set basis cc-pVDZ
set reference rhf
set geom_maxiter 400


mol.update_geometry()
mol.symmetrize(1e-3)

e, wfn = optimize('CCSD', return_wfn=True)
oeprop(wfn, "MULLIKEN_CHARGES")
mol.print_out()
print_variables()
