memory 62 GB

molecule mol {
0 1
    C            2.117688306787     0.529647352484    -1.885736215187
    C            1.627120245726     0.457350942425    -0.452884821609
    C            2.425020033465     1.304978967704     0.563976051117
    C            3.620976205526     0.413865876508     0.970741008246
    C            3.947609063740    -0.421184202640    -0.290006031451
    C            2.594314698119    -0.599092458754    -0.989816677709
    C            0.187257391389     0.146163627291    -0.161733715149
    C           -0.154169598889    -0.750225326463     0.877285619922
    C           -1.486244160365    -1.022938309035     1.190091956250
    C           -2.528275607356    -0.402624784629     0.468050108494
    C           -2.210376695524     0.490890649581    -0.566229649246
    C           -0.858684645397     0.756027296121    -0.866265529277
    H           -0.623945627868     1.459738939898    -1.672171007488
    H           -2.989207575110     0.989609965978    -1.146678166093
    O           -3.795266690889    -0.744910831702     0.855762504549
    H           -1.752900268124    -1.720245053459     1.989647398903
    H            0.642711320083    -1.247338186824     1.442235415777
    H            2.228421985787    -1.607429268493    -1.209576468714
    H            1.406688008442     0.273324136568    -2.677821415718
    H            2.835646572925     1.316092203898    -2.147159168240
    H            4.406767142348    -1.391497094735    -0.035311063973
    H            4.661447338369     0.115007319053    -0.943455847393
    H            3.295152865224    -0.271357513209     1.776306838683
    H            4.484162477300     0.987486703536     1.352499872612
    H            1.799157848366     1.582427166454     1.428374455279
    H            2.774746620400     2.245060181221     0.096955971022
    C           -4.867971338275    -0.141113409617     0.153391850576
    H           -5.788464603568    -0.537531517980     0.605735004086
    H           -4.856504718645     0.959958806901     0.257924064197
    H           -4.850126854890    -0.401013075248    -0.921604408463
}

set scf_type df
set basis cc-pVDZ
set reference rhf

mol.update_geometry()
mol.symmetrize(1e-3)

e, wfn = optimize('CCSD', return_wfn=True)
oeprop(wfn, "MULLIKEN_CHARGES")
mol.print_out()
print_variables()
