memory 32 GB

molecule mol {
1 1
C     0.000000     0.000000     0.000000
 C     0.000000     0.000000     1.408159
 C     1.238390     0.000000     2.083940
 C     2.446171     0.002671     1.370515
 C     2.433389     0.006984    -0.034905
 C     1.206959     0.006405    -0.718344
 C    -1.272775    -0.045945     2.187365
 C    -1.628447    -1.335766     2.950642
 C    -1.737379    -0.899581     4.425121
 C    -2.298884     0.536035     4.367965
 C    -1.714925     1.117079     3.080374
 C    -2.447067     0.821045     1.785889
 H    -1.105209     2.024766     3.117431
 H    -2.010969     1.129559     5.250215
 H    -3.402905     0.523128     4.327995
 H    -0.722722    -0.866532     4.860367
 H    -2.343692    -1.584853     5.041474
 H    -0.859446    -2.109250     2.797197
 H    -2.588575    -1.747216     2.590082
 H    -0.956167    -0.008250    -0.533134
 H     1.189730     0.008722    -1.812628
 O     3.620201     0.015345    -0.739041
 H     3.398462     0.008262     1.909827
 H     1.248128     0.009821     3.179443
 H    -2.297185     1.520127     0.958263
 H    -3.450761     0.388542     1.857464
 H    -3.244899     0.396095     0.858224
 H     3.436103     0.017283    -1.667972
}

set scf_type df
set opt_type ts
set basis cc-pVDZ
set reference rhf
set geom_maxiter 400


mol.update_geometry()
mol.symmetrize(1e-3)

e, wfn = optimize('mp2', return_wfn=True)
oeprop(wfn, "MULLIKEN_CHARGES")
mol.print_out()
print_variables()
