memory 62 GB

molecule mol {
1 1
units bohr
         C           -1.784424063438     1.432244308560    -1.636100519621
         C            0.380298675195     0.429531059953    -0.459831044199
         C            0.062020497239    -1.286994107202     1.554800308973
         C           -2.361112952473    -1.987642193560     2.369886430036
         C           -4.509002122834    -0.980352028277     1.175660776970
         C           -4.214167052740     0.730536085846    -0.830650112072
         C            2.977474845787     1.210405579241    -1.243024257443
         C            4.542357050278     2.876964497912     0.558895743596
         C            6.929940972118     1.308312289801     1.128438410821
         C            7.457926672119    -0.155853181383    -1.336306808174
         C            4.836126314837    -0.657297677951    -2.440184655182
         C            3.648573284720     1.420582808640    -4.016031050653
         H            4.223630172780    -2.597507836851    -2.807709930417
         H            8.498855852162    -1.924997772501    -0.989613873745
         H            8.608259656469     0.992452126835    -2.646675028910
         H            6.485728720985    -0.061287506612     2.639656172802
         H            8.543746296272     2.459952964629     1.773192177840
         H            3.462437151089     3.331685516029     2.279175796562
         H            5.041711509752     4.683289450549    -0.362300389138
         H           -1.554904764748     2.777551675630    -3.190974734552
         H           -5.878573573355     1.523576661930    -1.767727503164
         CL          -7.517221237154    -1.856047335362     2.173422943129
         H           -2.576772277363    -3.329651988541     3.928645921881
         H            1.736491699198    -2.090904387960     2.469286024235
         H            2.210737367643     0.854819593665    -5.388639291058
         H            4.860484884594     2.992938879958    -4.601487101581
         H            3.247556393363     3.107152037254    -5.135582286146
}


set scf_type df
set opt_type ts
set basis cc-pVDZ
set reference rhf
set geom_maxiter 1000
set opt_coordinates cartesian
set full_hess_every 0
set dynamic_level 1

mol.update_geometry()
mol.symmetrize(1e-3)

e, wfn = optimize('CCSD', return_wfn=True)
oeprop(wfn, "MULLIKEN_CHARGES")
mol.print_out()
print_variables()
