memory 32 GB

molecule mol {
1 1
C    0.00000000  0.00000000  0.00000000
C   -0.98355600  0.98834600  0.63351000
C   -0.15545600  1.87025100  1.58704500
C    1.10799900  1.04015600  1.88843400
C    1.38739700  0.26535300  0.58414700
H    1.93823300 -0.67083800  0.76760900
H    1.99612700  0.87301000 -0.10927000
H    0.87293200  0.31539500  2.68813600
H    1.96198800  1.64957800  2.22962300
H   -0.72692500  2.11087900  2.49737800
H    0.10879100  2.82611700  1.09956900
C   -2.35713200  0.57512500  1.04795800
C   -2.52634800 -0.33322100  2.11405500
C   -3.80861500 -0.70398800  2.54538000
C   -4.94522900 -0.17095300  1.91342300
C   -4.78920900  0.73441000  0.85172900
C   -3.50339200  1.10573800  0.42550300
H   -3.38198800  1.81764400 -0.39730100
H   -5.66997500  1.15406900  0.35584900
Cl  -5.94613200 -0.46231700  2.24540100
H   -3.92273700 -1.41414900  3.37024000
H   -1.64025600 -0.75863200  2.59798000
C   -0.62842600  1.09956700 -0.83390200
H   -1.38929600  0.80017800 -1.56025500
H    0.01289000  1.93162200 -1.14371200
H   -0.32411900 -1.02671500 -0.19448600
H    0.55248995  0.09735724 -0.67706783
}

set scf_type df
set opt_type ts
set basis cc-pVTZ
set reference rhf
set geom_maxiter 400


mol.update_geometry()
mol.symmetrize(1e-3)

e, wfn = optimize('mp2', return_wfn=True)
oeprop(wfn, "MULLIKEN_CHARGES")
mol.print_out()
print_variables()
