memory 62 GB

molecule mol {
1 1
    C            2.561235381618    -0.389938516782    -1.298497476741
    C            1.540610317784     0.782775633096    -0.756602404409
    C            2.394881390297     1.612884911786     0.226423180861
    C            3.514578228887     0.670462851619     0.709450004074
    C            3.885173808400    -0.148970918863    -0.539226278947
    H            4.347036734233    -1.122545970482    -0.310270197737
    H            4.590537514681     0.409202191214    -1.178608101660
    H            3.132260355018     0.002942172612     1.502025787378
    H            4.377834024631     1.215266354758     1.123230799214
    H            1.757985176415     1.971080079640     1.049448453815
    H            2.810855385358     2.497561132527    -0.288834086693
    C            0.190974859813     0.283141853057    -0.304166217150
    C            0.088357952948    -0.650167678742     0.746698608252
    C           -1.165941810735    -1.070373344967     1.202844284784
    C           -2.331026112281    -0.546928179663     0.613703040378
    C           -2.242446598457     0.393290741816    -0.423670352686
    C           -0.981190779517     0.807127428749    -0.877403510651
    H           -0.926523115720     1.559061184099    -1.672847561756
    H           -3.152607431405     0.802369559075    -0.869325421360
    CL          -3.884962459579    -1.065107554236     1.174759843086
    H           -1.245739830303    -1.801036658582     2.011618646709
    H            0.987913362111    -1.067278936316     1.212336662231
    C            1.759593788558     0.939203675880    -2.169077159509
    H            1.025039364232     0.536819573541    -2.876140951746
    H            2.489614284822     1.660679235721    -2.556050556866
    H            2.044530424979    -1.358763436452    -1.298908703739
    H            2.840095877635    -0.289121014814    -2.441788126882
}

set scf_type df
set opt_type ts
set basis cc-pVDZ
set reference rhf
set geom_maxiter 400


mol.update_geometry()
mol.symmetrize(1e-3)

e, wfn = optimize('CCSD', return_wfn=True)
oeprop(wfn, "MULLIKEN_CHARGES")
mol.print_out()
print_variables()
