memory 32 GB

molecule mol {
1 1
	    C    -0.4618957390   1.1724448523   0.6262718155
	    C     0.2075183146   0.0381016539   0.0507948911
	    C    -0.5859527911  -1.1167196689  -0.2865949213
	    C    -1.9458219372  -1.1217601642  -0.0722167969
	    C    -2.5945864103   0.0280915490   0.4736320309
	    C    -1.8305946435   1.1815585377   0.8194568106
	    C     1.5871880245   0.0642330601  -0.1765845482
	    C     2.5379808692   1.1213673643   0.2952137427
	    C     3.8354291365   0.3194437375   0.5210343893
	    C     3.8501864651  -0.6163993311  -0.6934768344
	    C     2.3666223601  -1.0042710923  -0.9069171493
	    C     1.9844261411  -1.0885055853  -2.3994957094
	    H     2.1535221895  -1.9765241836  -0.4231671864
	    H     4.4954462487  -1.4971116829  -0.5637585633
	    H     4.2113661964  -0.0661424258  -1.5796038048
	    H     3.7565126743  -0.2550933558   1.4593319836
	    H     4.7203407284   0.9679256158   0.5910017307
	    H     2.1896454673   1.7056600475   1.1571599185
	    H     2.6972898194   1.8196604620  -0.5532446238
	    H     0.1137639745   2.0632197585   0.8879955091
	    H    -2.3096988688   2.0663909292   1.2399319375
	    O    -3.8981771908  -0.0854981509   0.6253167854
	    H    -2.5631984057  -1.9930492423  -0.3033278517
	    H    -0.1039560355  -2.0125831398  -0.6829365333
	    H     0.9438907688  -1.4079832221  -2.5548895941
	    H     2.6493133613  -1.8099884134  -2.8991981226
	    H     2.1220198768  -0.1075512629  -2.8817748850
	    C    -4.6412924869   1.0245642694   1.1814634746
	    H    -5.6814657236   0.6846471036   1.2018400822
	    H    -4.2930039007   1.2411699203   2.2018266462
	    H    -4.5438806360   1.9086808451   0.5347406924	
}	


set scf_type df
set basis cc-pVDZ
set reference rhf


mol.update_geometry()
mol.symmetrize(1e-3)

e, wfn = frequencies('mp2', return_wfn=True)
oeprop(wfn, "MULLIKEN_CHARGES")
mol.print_out()
print_variables()
