memory 32 GB

molecule mol {
1 1
 C    -2.874966     0.006171     1.259405
 C    -1.728706    -0.524442     1.881860
 C    -1.897922    -1.432788     2.947957
 C    -3.180189    -1.803555     3.379282
 C    -4.316803    -1.270520     2.747325
 C    -4.160783    -0.365157     1.685631
 C    -0.355130    -0.111221     1.467412
 C     0.472970     0.770684     2.420947
 C     1.736425    -0.059411     2.722336
 C     2.015823    -0.834214     1.418049
 C     0.628426    -1.099567     0.833902
 C     0.000000    -0.000000    -0.000000
 H     0.304307    -2.126282     0.639416
 H     2.566659    -1.770405     1.601511
 H     2.624553    -0.226557     0.724632
 H     1.501358    -0.784172     3.522038
 H     2.590414     0.550011     3.063525
 H    -0.098499     1.011312     3.331280
 H     0.737217     1.726550     1.933471
 H    -2.753562     0.718077     0.436601
 H    -5.041549     0.054502     1.189751
 O    -5.579329    -1.638043     3.166078
 H    -3.294311    -2.513716     4.204142
 H    -1.011830    -1.858199     3.431882
 H    -0.760870    -0.299389    -0.726353
 H     0.641316     0.832055    -0.309810
 H    -0.212209     0.892494    -0.592441
 C    -6.539131    -0.979097     2.388537
 H    -7.535429    -1.269120     2.718988
 H    -6.419074     0.097593     2.499206
 H    -6.409479    -1.253196     1.342602
}

set scf_type df
set opt_type ts
set basis cc-pVDZ
set reference rhf
set geom_maxiter 1000
set opt_coordinates cartesian
set full_hess_every 0
set dynamic_level 1

mol.update_geometry()
mol.symmetrize(1e-3)

e, wfn = optimize('mp2', return_wfn=True)
oeprop(wfn, "MULLIKEN_CHARGES")
mol.print_out()
print_variables()
