memory 62 GB

molecule mol {
1 1
C    0.00000000  0.00000000  0.00000000
C   -0.35513000 -0.11122100  1.46741200
C    0.47297000  0.77068400  2.42094700
C    1.73642500 -0.05941100  2.72233600
C    2.01582300 -0.83421400  1.41804900
C    0.62842600 -1.09956700  0.83390200
H    0.30430700 -2.12628200  0.63941600
H    2.56665900 -1.77040500  1.60151100
H    2.62455300 -0.22655700  0.72463200
H    1.50135800 -0.78417200  3.52203800
H    2.59041400  0.55001100  3.06352500
H   -0.09849900  1.01131200  3.33128000
H    0.73721700  1.72655000  1.93347100
C   -1.72870600 -0.52444200  1.88186000
C   -1.89792200 -1.43278800  2.94795700
C   -3.18018900 -1.80355500  3.37928200
C   -4.31680300 -1.27052000  2.74732500
C   -4.16078300 -0.36515700  1.68563100
C   -2.87496600  0.00617100  1.25940500
H   -2.75356200  0.71807700  0.43660100
H   -5.04154900  0.05450200  1.18975100
H   -5.31770600 -1.56188400  3.07930300
H   -3.29431100 -2.51371600  4.20414200
H   -1.01183000 -1.85819900  3.43188200
H   -0.76087000 -0.29938900 -0.72635300
H    0.64131600  0.83205500 -0.30981000
H   -0.21220963  0.89249413 -0.59244093
}

set scf_type df
set opt_type ts
set basis cc-pVTZ
set reference rhf
set geom_maxiter 1000
set opt_coordinates cartesian
set full_hess_every 0
set dynamic_level 1

mol.update_geometry()
mol.symmetrize(1e-3)

e, wfn = optimize('CCSD', return_wfn=True)
oeprop(wfn, "MULLIKEN_CHARGES")
mol.print_out()
print_variables()
