memory 32 GB

molecule mol {
1 1
	    C    -0.1564660264   1.2926847351   0.6454518610
	    C     0.3017526054   0.0997667822  -0.0051421030
	    C    -0.5795296054  -1.0295843677  -0.0771519972
	    C    -1.8533311183  -0.9648379761   0.4674219871
	    C    -2.2909815234   0.2362519283   1.0771256122
	    C    -1.4425413392   1.3661451023   1.1605799684
	    C     1.5962233144   0.0442139656  -0.5607966962
	    C     2.6776151248   1.0493318255  -0.3457784210
	    C     3.9590118875   0.1979915693  -0.4671106786
	    C     3.6143626556  -0.7301079006  -1.6372697346
	    C     2.1161302276  -1.0616968224  -1.4396137645
	    C     1.3426700165  -1.1773598530  -2.7722138450
	    H     2.0072550631  -2.0101711431  -0.8770167991
	    H     4.2369120135  -1.6349221787  -1.6824688394
	    H     3.7411451971  -0.1888606451  -2.5909452642
	    H     4.1109316688  -0.3762687727   0.4620401783
	    H     4.8519159453   0.8155308940  -0.6376466762
	    H     2.5798977058   1.6474164772   0.5697066139
	    H     2.6349721865   1.7409536653  -1.2159118932
	    H     0.4944784584   2.1679792754   0.7056682090
	    H    -1.8059790365   2.2791208203   1.6378637149
	   CL    -3.8661438341   0.3180748655   1.7334750950
	    H    -2.5230205749  -1.8273992513   0.4356473432
	    H    -0.2367173287  -1.9648469013  -0.5247221709
	    H     0.2926934247  -1.4704428803  -2.6324458726
	    H     1.8367792792  -1.9342454831  -3.4004134591
	    H     1.3697550664  -0.2168807411  -3.3108102637	
}	


set scf_type df
set basis cc-pVDZ
set reference rhf


mol.update_geometry()
mol.symmetrize(1e-3)

e, wfn = frequencies('mp2', return_wfn=True)
oeprop(wfn, "MULLIKEN_CHARGES")
mol.print_out()
print_variables()
