memory 32 GB

molecule mol {
1 1
    C            2.940729029582    -0.379409089862    -1.695460555315
    C            1.306346396785     1.037487004860    -0.787097816623
    C            2.129690625959     1.891254331322     0.047416379718
    C            3.275565283143     0.838087475447     0.470999750447
    C            3.954433852296     0.281334491811    -0.772246344920
    H            4.708811189259    -0.465375660880    -0.469358718295
    H            4.489814122413     1.084709919576    -1.306366160151
    H            2.827060621243     0.041411311681     1.085578774066
    H            3.953784402442     1.417870288066     1.116959404125
    H            1.622287334698     2.247985309516     0.952331460703
    H            2.634260038865     2.694940997202    -0.508160621028
    C            0.108646912984     0.385120581970    -0.234886831863
    C            0.121948195924    -0.845970366045     0.452501273746
    C           -1.078690664069    -1.380616215345     0.939747895239
    C           -2.286537703094    -0.691303364736     0.743111087908
    C           -2.302733546077     0.535734644026     0.057332791353
    C           -1.108332868688     1.078191933176    -0.432636553357
    H           -1.130281269030     2.034599789926    -0.964567440166
    H           -3.246307031747     1.066203252700    -0.092162923044
    CL          -3.760940356643    -1.353766413414     1.349332035430
    H           -1.076086740127    -2.333833331374     1.473847530993
    H            1.052104358736    -1.395645337307     0.614975137100
    C            1.796182378929     0.681448397799    -2.104787207565
    H            1.051648936676     0.176712268889    -2.732847492244
    H            2.306769475520     1.506850745830    -2.621712281795
    H            2.469872554531    -1.257787967625    -1.226081372511
    H            3.369173222568    -0.703155081736    -2.657557322757
}

set scf_type df
set basis cc-pVDZ
set reference rhf


mol.update_geometry()
mol.symmetrize(1e-3)

e, wfn = frequencies('mp2', return_wfn=True)
oeprop(wfn, "MULLIKEN_CHARGES")
mol.print_out()
print_variables()
