memory 62 GB

molecule mol {
1 1
    C            3.463374812365     0.476963032123     0.868367774883
    C            2.394124927471     1.472497392736     0.378006598727
    C            1.525800972064     0.709840419390    -0.642606067739
    C            1.788025475013     0.848187808710    -2.035455871877
    C            2.533629375516    -0.523579312927    -1.199110873439
    C            3.833667348291    -0.334461834362    -0.381536837166
    C            0.162653133698     0.231343345302    -0.221769604363
    C            0.010226651312    -0.677922044167     0.853110911769
    C           -1.255520197069    -1.070867526400     1.269621254136
    C           -2.416037453184    -0.555125384909     0.637558359721
    C           -2.272325912317     0.360067129702    -0.420763027642
    C           -0.985641892853     0.745770889671    -0.838419778810
    H           -0.900311704830     1.478120548428    -1.649715838978
    H           -3.140243345639     0.788209651227    -0.924940366435
    O           -3.585045799645    -1.005450156774     1.128902291800
    H           -1.389591699235    -1.780567092610     2.090482193866
    H            0.888205485721    -1.094314442659     1.358715047144
    H            1.055857571582     0.471671330947    -2.758229053902
    H            2.554862490077     1.537488471276    -2.409013608670
    H            3.035670314355    -0.184995183228     1.642287312338
    H            4.334970633035     0.983275387949     1.313867506180
    H            4.249692726706    -1.328212393682    -0.151221140186
    H            4.574259985712     0.205362428193    -0.995736790391
    H            1.970170297358    -1.468576587946    -1.185867313605
    H            1.749322867765     1.836754094577     1.192209604494
    H            2.858337695186     2.350337962851    -0.108555209365
    H            2.866286028252    -0.477031989129    -2.317777780705
    C           -4.790590497916    -0.518544903802     0.538626285296
    H           -5.607121844075    -1.008796296612     1.084965415543
    H           -4.877833119611     0.576295903322     0.653459287839
    H           -4.850014091829    -0.789359141658    -0.530258448326
}

set scf_type df
set opt_type ts
set basis cc-pVDZ
set reference rhf
set geom_maxiter 400


mol.update_geometry()
mol.symmetrize(1e-3)

e, wfn = optimize('CCSD', return_wfn=True)
oeprop(wfn, "MULLIKEN_CHARGES")
mol.print_out()
print_variables()
