memory 32 GB

molecule mol {
1 1
	    C    -0.7751798154   1.2539895283   0.8039195167
	    C    -0.1521375633   0.1245111424   0.1692086926
	    C    -0.9327410159  -1.0717020575  -0.0097286578
	    C    -2.2462888293  -1.1283048385   0.4070034699
	    C    -2.8484049681   0.0133704038   1.0061616889
	    C    -2.0983148935   1.2066529575   1.1973461583
	    C     1.1777860312   0.1938169958  -0.2643604845
	    C     2.1421100467   1.2992739903   0.0328251389
	    C     3.4920506230   0.5548718866   0.0790572476
	    C     3.3635802392  -0.4153859063  -1.1012017369
	    C     1.8823440700  -0.8649618586  -1.0780638922
	    C     1.2823261679  -1.0100994588  -2.4925905350
	    H     1.7848377180  -1.8292536276  -0.5436818579
	    H     4.0570044495  -1.2669580401  -1.0496510316
	    H     3.5639105268   0.1212380263  -2.0447352495
	    H     3.5795325834   0.0065305218   1.0320899338
	    H     4.3483726543   1.2394008717  -0.0011489637
	    H     1.9014486680   1.8980870543   0.9211041742
	    H     2.1419752589   1.9742198153  -0.8492328866
	    H    -0.2093187886   2.1768038616   0.9490497266
	    H    -2.5693453372   2.0784519123   1.6619604062
	    O    -4.1160564041  -0.1156012585   1.3706463315
	    H    -2.8480059532  -2.0334187217   0.2965321091
	    H    -0.4738970169  -1.9603232225  -0.4476827381
	    H     0.2454499374  -1.3755770174  -2.4791102832
	    H     1.8950574472  -1.7204390808  -3.0690129464
	    H     1.3021136706  -0.0403508789  -3.0151017249
	    H    -4.4404572953   0.7084087453   1.7740465273	
}	


set scf_type df
set basis cc-pVDZ
set reference rhf


mol.update_geometry()
mol.symmetrize(1e-3)

e, wfn = frequencies('mp2', return_wfn=True)
oeprop(wfn, "MULLIKEN_CHARGES")
mol.print_out()
print_variables()
