memory 62 GB

molecule mol {
0 1
C    0.00000000  0.00000000  0.00000000
C   -0.60596800 -1.22643900 -0.66495400
C   -2.02709400 -1.58300900 -0.50745700
C   -2.43823800 -2.92802500 -0.36687600
C   -3.79420800 -3.25362700 -0.21147700
C   -4.76604600 -2.24026400 -0.18223100
C   -4.36957100 -0.89748300 -0.29927000
C   -3.01413900 -0.57254200 -0.45292200
H   -2.71536900  0.47628700 -0.54544000
H   -5.11880500 -0.10042600 -0.26858100
H   -5.82299500 -2.49372900 -0.05807200
H   -4.09109700 -4.30103800 -0.09961600
H   -1.68164800 -3.71784500 -0.34781900
C    0.31906000 -1.84881900 -1.45135500
C    1.65382000 -1.13497300 -1.36532200
C    1.51129000 -0.28096600 -0.09259300
H    1.81230500 -0.88683600  0.77854100
H    2.12735300  0.63188600 -0.10372600
H    2.50985700 -1.83129300 -1.32897500
H    1.79496400 -0.50247100 -2.26494400
C    0.12013800 -2.99314900 -2.39942300
H   -0.94431100 -3.22404400 -2.55201200
H    0.56881600 -2.74955600 -3.37850200
H    0.62560000 -3.90646200 -2.03728700
H   -0.35400200  0.14438000  1.03432400
H   -0.26785300  0.91306400 -0.56714000
}

set scf_type df
set basis cc-pVTZ
set reference rhf

mol.update_geometry()
mol.symmetrize(1e-3)

e, wfn = optimize('CCSD-T', return_wfn=True)
oeprop(wfn, "MULLIKEN_CHARGES")
mol.print_out()
print_variables()
