memory 32 GB

molecule mol {
1 1
C            1.425056003475     1.462642754007     0.500390918691
    C            0.506015663420     0.794494161141    -0.401329652114
    C           -0.687467939282     0.111436701139     0.119689098389
    C           -0.692581539549    -1.215206586661     0.598018780098
    C           -1.893694307828    -1.764950276072     1.073167245469
    C           -3.074057610775    -1.006414521991     1.073197801818
    C           -3.060848619460     0.313821303586     0.595154849046
    C           -1.872652042189     0.883945328722     0.115268157147
    H           -1.868369935673     1.913465700398    -0.256284723730
    H           -3.977173308145     0.910139701577     0.592425066336
    H           -4.004210231556    -1.443235151447     1.445376604402
    H           -1.899564874832    -2.793195615898     1.444360346993
    H            0.218900181462    -1.817463567391     0.603453054031
    C            0.893232151687     0.642597126731    -1.791247362760
    H            0.084032104657     0.280695992335    -2.437696761318
    H            1.409325351466     1.522526637924    -2.201968830067
    C            2.003838859184    -0.515109267042    -1.644254522177
    C            3.107054043743    -0.062171600837    -0.697927406458
    C            2.537516914692     0.308513718718     0.664289839188
    H            2.087311661567    -0.560201832608     1.170430820572
    H            3.285505009436     0.742789974697     1.346364020757
    H            3.837440432129    -0.880453363158    -0.574871839334
    H            3.650909309403     0.795401499632    -1.129510426513
    H            1.518678534004    -1.440585848322    -1.295339863661
    H            0.994314548954     1.686004938350     1.484344924865
    H            1.933618773431     2.326230628538     0.047837608444
    H            2.357006269054    -0.689629049008    -2.672887086946
}

set scf_type df
set basis cc-pVDZ
set reference rhf


mol.update_geometry()
mol.symmetrize(1e-3)

e, wfn = frequencies('mp2', return_wfn=True)
oeprop(wfn, "MULLIKEN_CHARGES")
mol.print_out()
print_variables()
